2401907
49,60,30,63,76,38,50,88,83,45,12,22,4,86,69,85,44,72,66,28,34,39,7,74,3,5,2,42,35,27,97,9,57,95,15,37,1,87,80,36,98,59,52,78,25,73,40,26,19,17,79,29,94,51,43,24,90,11,46,65,82,67,58,61,16,71,23,54,84,92,14,68,13,20,96,21,33,47,81,48,32,56,41,99,93,31,62,70,77,91,64,89,55,8,53,6,10,75,18,49